# Solution for model ComputeNE_MIP
# Objective value = 7
sigma_0_0 0
sigma_0_1 0
sigma_0_2 0
sigma_0_3 0
sigma_0_4 0
sigma_0_5 0
sigma_0_6 0
sigma_0_7 1
sigma_1_0 0
sigma_1_1 0
sigma_1_2 0
sigma_1_3 0
sigma_1_4 0
sigma_1_5 0
sigma_1_6 0
sigma_1_7 1
sigma_2_0 0
sigma_2_1 0
sigma_2_2 0
sigma_2_3 0
sigma_2_4 0
sigma_2_5 0
sigma_2_6 0
sigma_2_7 1
sigma_3_0 0
sigma_3_1 0
sigma_3_2 0
sigma_3_3 0
sigma_3_4 0
sigma_3_5 0
sigma_3_6 0
sigma_3_7 1
sigma_4_0 0
sigma_4_1 0
sigma_4_2 0
sigma_4_3 0
sigma_4_4 0
sigma_4_5 1
sigma_4_6 0
sigma_4_7 0
sigma_5_0 0
sigma_5_1 0
sigma_5_2 0
sigma_5_3 0
sigma_5_4 0
sigma_5_5 0
sigma_5_6 0
sigma_5_7 1
sigma_6_0 0
sigma_6_1 0
sigma_6_2 0
sigma_6_3 0
sigma_6_4 0
sigma_6_5 0
sigma_6_6 0
sigma_6_7 1
activ_0_0 0
activ_0_1 0
activ_0_2 0
activ_0_3 0
activ_0_4 0
activ_0_5 0
activ_0_6 0
activ_0_7 1
activ_1_0 0
activ_1_1 0
activ_1_2 0
activ_1_3 0
activ_1_4 0
activ_1_5 0
activ_1_6 0
activ_1_7 1
activ_2_0 0
activ_2_1 0
activ_2_2 0
activ_2_3 0
activ_2_4 0
activ_2_5 0
activ_2_6 0
activ_2_7 1
activ_3_0 0
activ_3_1 0
activ_3_2 0
activ_3_3 0
activ_3_4 0
activ_3_5 0
activ_3_6 0
activ_3_7 1
activ_4_0 0
activ_4_1 0
activ_4_2 0
activ_4_3 0
activ_4_4 0
activ_4_5 1
activ_4_6 0
activ_4_7 0
activ_5_0 0
activ_5_1 0
activ_5_2 0
activ_5_3 0
activ_5_4 0
activ_5_5 0
activ_5_6 0
activ_5_7 1
activ_6_0 0
activ_6_1 0
activ_6_2 0
activ_6_3 0
activ_6_4 0
activ_6_5 0
activ_6_6 0
activ_6_7 1
v_0 2.4234806801897348e+03
v_1 1.9912444471760627e+03
v_2 5.0640774180471675e+02
v_3 2.0813508316401976e+03
v_4 3.4778354699231204e+03
v_5 3.8234473424943490e+03
v_6 4.4141388750005517e+03
ArtP_R0 0
ArtN_R0 0
ArtN_R1 0
ArtP_R2 0
ArtN_R2 0
ArtN_R3 0
ArtP_R4 0
ArtN_R4 0
ArtN_R5 0
ArtP_R6 0
ArtN_R6 0
ArtN_R7 0
ArtP_R8 0
ArtN_R8 0
ArtN_R9 0
ArtP_R10 0
ArtN_R10 0
ArtN_R11 0
ArtP_R12 0
ArtN_R12 0
ArtN_R13 0
ArtN_R14 0
ArtP_R15 0
ArtN_R16 0
ArtN_R17 0
ArtP_R18 0
ArtN_R19 0
ArtN_R20 0
ArtP_R21 0
ArtN_R22 0
ArtN_R23 0
ArtP_R24 0
ArtN_R25 0
ArtN_R26 0
ArtP_R27 0
ArtN_R28 0
ArtN_R29 0
ArtP_R30 0
ArtN_R31 0
ArtN_R32 0
ArtP_R33 0
ArtN_R34 0
ArtN_R35 0
ArtP_R36 0
ArtN_R37 0
ArtN_R38 0
ArtP_R39 0
ArtN_R40 0
ArtN_R41 0
ArtP_R42 0
ArtN_R43 0
ArtN_R44 0
ArtP_R45 0
ArtN_R46 0
ArtN_R47 0
ArtP_R48 0
ArtN_R49 0
ArtN_R50 0
ArtP_R51 0
ArtN_R52 0
ArtN_R53 0
ArtP_R54 0
ArtN_R55 0
ArtN_R56 0
ArtP_R57 0
ArtN_R58 0
ArtN_R59 0
ArtP_R60 0
ArtN_R61 0
ArtN_R62 0
ArtP_R63 0
ArtN_R64 0
ArtN_R65 0
ArtP_R66 0
ArtN_R67 0
ArtN_R68 0
ArtP_R69 0
ArtN_R70 0
ArtN_R71 0
ArtP_R72 0
ArtN_R73 0
ArtN_R74 0
ArtP_R75 0
ArtN_R76 0
ArtN_R77 0
ArtP_R78 0
ArtN_R79 0
ArtN_R80 0
ArtP_R81 0
ArtN_R82 0
ArtN_R83 0
ArtP_R84 0
ArtN_R85 0
ArtN_R86 0
ArtP_R87 0
ArtN_R88 0
ArtN_R89 0
ArtP_R90 0
ArtN_R91 0
ArtN_R92 0
ArtP_R93 0
ArtN_R94 0
ArtN_R95 0
ArtP_R96 0
ArtN_R97 0
ArtN_R98 0
ArtP_R99 0
ArtN_R100 0
ArtN_R101 0
ArtP_R102 0
ArtN_R103 0
ArtN_R104 0
ArtP_R105 0
ArtN_R106 0
ArtN_R107 0
ArtP_R108 0
ArtN_R109 0
ArtN_R110 0
ArtP_R111 0
ArtN_R112 0
ArtN_R113 0
ArtP_R114 0
ArtN_R115 0
ArtN_R116 0
ArtP_R117 0
ArtN_R118 0
ArtN_R119 0
ArtP_R120 0
ArtN_R121 0
ArtN_R122 0
ArtP_R123 0
ArtN_R124 0
ArtN_R125 0
ArtP_R126 0
ArtN_R127 0
ArtN_R128 0
ArtP_R129 0
ArtN_R130 0
ArtN_R131 0
ArtP_R132 0
ArtN_R133 0
ArtN_R134 0
ArtP_R135 0
ArtN_R136 0
ArtN_R137 0
ArtP_R138 0
ArtN_R139 0
ArtN_R140 0
ArtP_R141 0
ArtN_R142 0
ArtN_R143 0
ArtP_R144 0
ArtN_R145 0
ArtN_R146 0
ArtP_R147 0
ArtN_R148 0
ArtN_R149 0
ArtP_R150 0
ArtN_R151 0
ArtN_R152 0
ArtP_R153 0
ArtN_R154 0
ArtN_R155 0
ArtP_R156 0
ArtN_R157 0
ArtN_R158 0
ArtP_R159 0
ArtN_R160 0
ArtN_R161 0
ArtP_R162 0
ArtN_R163 0
ArtN_R164 0
ArtP_R165 0
ArtN_R166 0
ArtN_R167 0
ArtP_R168 0
ArtN_R169 0
ArtN_R170 0
ArtP_R171 0
ArtN_R172 0
ArtN_R173 0
ArtP_R174 0
ArtN_R175 0
ArtN_R176 0
ArtP_R177 0
ArtN_R178 0
ArtN_R179 0
ArtP_R180 0
ArtN_R181 0
